NAME: I8841-n21-k5
COMMENT : (Fake et al, No of trucks: 5, Optimal value: )
TYPE : CVRP
DIMENSION : 21
EDGE_WEIGHT_TYPE : EUC_2D
CAPACITY : 5
NODE_COORD_SECTION
1 103 193
2 333 11
3 300 67
4 347 281
5 832 708
6 556 87
7 266 720
8 532 280
9 626 915
10 868 2
11 207 486
12 210 112
13 354 657
14 822 523
15 602 718
16 496 366
17 216 477
18 239 293
19 787 929
20 365 330
21 247 27
DEMAND_SECTION
1 0
2 1
3 1
4 1
5 1
6 1
7 1
8 1
9 1
10 1
11 1
12 1
13 1
14 1
15 1
16 1
17 1
18 1
19 1
20 1
21 1
DEPOT_SECTION
 1
 -1
 EOF 